c 175_3_checker_5cl.cnf
c
c field = 175
c formula set type = 3_checker_5cl
c
p cnf 5 12
318 
378 
408 
-439 
-288 
319 
379 
409 
-438 
-289 
378 
408 
438 
-319 
-288 
379 
409 
439 
-318 
-289 
316 
380 
412 
-445 
-284 
317 
381 
413 
-444 
-285 
380 
412 
444 
-317 
-284 
381 
413 
445 
-316 
-285 
320 
376 
404 
-433 
-292 
321 
377 
405 
-432 
-293 
376 
404 
432 
-321 
-292 
377 
405 
433 
-320 
-293 
